Generated by script
1.0
      9.0000000000      0.0000000000      0.0000000000
      0.0000000000     12.0000000000      0.0000000000
      0.0000000000      0.0000000000     15.0000000000
  B  Co  Fe  Mo  Ni  O
  12  12  12  12  12  60
Cartesian
      0.0000000000      0.0000000000      6.0000000000
      0.0000000000      6.0000000000      3.0000000000
      1.5000000000      7.5000000000      7.5000000000
      3.0000000000      0.0000000000     12.0000000000
      4.5000000000      1.5000000000     13.5000000000
      4.5000000000      7.5000000000      7.5000000000
      4.5000000000     10.5000000000      7.5000000000
      3.0000000000      9.0000000000     12.0000000000
      7.5000000000      1.5000000000      1.5000000000
      7.5000000000      1.5000000000      7.5000000000
      6.0000000000      6.0000000000     12.0000000000
      6.0000000000      9.0000000000      9.0000000000
      1.5000000000      1.5000000000      4.5000000000
      0.0000000000      0.0000000000     12.0000000000
      1.5000000000     10.5000000000      1.5000000000
      3.0000000000      3.0000000000      3.0000000000
      3.0000000000      6.0000000000      9.0000000000
      4.5000000000      7.5000000000     13.5000000000
      7.5000000000      1.5000000000      4.5000000000
      7.5000000000      4.5000000000      1.5000000000
      7.5000000000      4.5000000000     10.5000000000
      7.5000000000     10.5000000000      1.5000000000
      6.0000000000      9.0000000000      6.0000000000
      6.0000000000      9.0000000000     12.0000000000
      0.0000000000      3.0000000000     12.0000000000
      1.5000000000      7.5000000000      4.5000000000
      1.5000000000      7.5000000000     10.5000000000
      0.0000000000      6.0000000000     12.0000000000
      0.0000000000      9.0000000000     12.0000000000
      3.0000000000      0.0000000000      6.0000000000
      4.5000000000      4.5000000000      7.5000000000
      3.0000000000      6.0000000000     12.0000000000
      3.0000000000      9.0000000000      3.0000000000
      6.0000000000      0.0000000000      6.0000000000
      6.0000000000      3.0000000000      9.0000000000
      7.5000000000      7.5000000000     10.5000000000
      0.0000000000      3.0000000000      3.0000000000
      1.5000000000      4.5000000000     13.5000000000
      4.5000000000      1.5000000000      1.5000000000
      4.5000000000      1.5000000000      4.5000000000
      3.0000000000      3.0000000000      6.0000000000
      3.0000000000      6.0000000000      0.0000000000
      4.5000000000     10.5000000000      1.5000000000
      7.5000000000      1.5000000000     13.5000000000
      6.0000000000      3.0000000000      3.0000000000
      7.5000000000      4.5000000000      4.5000000000
      7.5000000000      4.5000000000      7.5000000000
      7.5000000000     10.5000000000     13.5000000000
      1.5000000000      1.5000000000      7.5000000000
      1.5000000000      1.5000000000     13.5000000000
      0.0000000000      3.0000000000      0.0000000000
      4.5000000000      4.5000000000     10.5000000000
      3.0000000000      3.0000000000     12.0000000000
      4.5000000000      4.5000000000     13.5000000000
      4.5000000000     10.5000000000      4.5000000000
      4.5000000000     10.5000000000     13.5000000000
      7.5000000000      4.5000000000     13.5000000000
      7.5000000000      7.5000000000      1.5000000000
      7.5000000000      7.5000000000     13.5000000000
      6.0000000000      9.0000000000      3.0000000000
      0.0000000000      0.0000000000      0.0000000000
      1.5000000000      1.5000000000      1.5000000000
      0.0000000000      0.0000000000      3.0000000000
      0.0000000000      0.0000000000      9.0000000000
      1.5000000000      1.5000000000     10.5000000000
      1.5000000000      4.5000000000      1.5000000000
      1.5000000000      4.5000000000      4.5000000000
      0.0000000000      3.0000000000      6.0000000000
      1.5000000000      4.5000000000      7.5000000000
      0.0000000000      3.0000000000      9.0000000000
      1.5000000000      4.5000000000     10.5000000000
      0.0000000000      6.0000000000      0.0000000000
      1.5000000000      7.5000000000      1.5000000000
      0.0000000000      6.0000000000      6.0000000000
      0.0000000000      6.0000000000      9.0000000000
      1.5000000000      7.5000000000     13.5000000000
      0.0000000000      9.0000000000      0.0000000000
      0.0000000000      9.0000000000      3.0000000000
      1.5000000000     10.5000000000      4.5000000000
      0.0000000000      9.0000000000      6.0000000000
      1.5000000000     10.5000000000      7.5000000000
      0.0000000000      9.0000000000      9.0000000000
      1.5000000000     10.5000000000     10.5000000000
      1.5000000000     10.5000000000     13.5000000000
      3.0000000000      0.0000000000      0.0000000000
      3.0000000000      0.0000000000      3.0000000000
      4.5000000000      1.5000000000      7.5000000000
      3.0000000000      0.0000000000      9.0000000000
      4.5000000000      1.5000000000     10.5000000000
      3.0000000000      3.0000000000      0.0000000000
      4.5000000000      4.5000000000      1.5000000000
      4.5000000000      4.5000000000      4.5000000000
      3.0000000000      3.0000000000      9.0000000000
      4.5000000000      7.5000000000      1.5000000000
      3.0000000000      6.0000000000      3.0000000000
      4.5000000000      7.5000000000      4.5000000000
      3.0000000000      6.0000000000      6.0000000000
      4.5000000000      7.5000000000     10.5000000000
      3.0000000000      9.0000000000      0.0000000000
      3.0000000000      9.0000000000      6.0000000000
      3.0000000000      9.0000000000      9.0000000000
      4.5000000000     10.5000000000     10.5000000000
      6.0000000000      0.0000000000      0.0000000000
      6.0000000000      0.0000000000      3.0000000000
      6.0000000000      0.0000000000      9.0000000000
      7.5000000000      1.5000000000     10.5000000000
      6.0000000000      0.0000000000     12.0000000000
      6.0000000000      3.0000000000      0.0000000000
      6.0000000000      3.0000000000      6.0000000000
      6.0000000000      3.0000000000     12.0000000000
      6.0000000000      6.0000000000      0.0000000000
      6.0000000000      6.0000000000      3.0000000000
      7.5000000000      7.5000000000      4.5000000000
      6.0000000000      6.0000000000      6.0000000000
      7.5000000000      7.5000000000      7.5000000000
      6.0000000000      6.0000000000      9.0000000000
      6.0000000000      9.0000000000      0.0000000000
      7.5000000000     10.5000000000      4.5000000000
      7.5000000000     10.5000000000      7.5000000000
      7.5000000000     10.5000000000     10.5000000000
