title
1.0
        9.7950000763         0.0000000000         0.0000000000
        0.0000000000        13.0600004196         0.0000000000
        0.0000000000         0.0000000000        16.3250007629
    B   Co   Fe   Mo   Ni    O
   12   12   12   12   12   60
Direct
     0.166666999         0.125000000         0.099999999
     0.166666999         0.125000000         0.899999965
     0.166666999         0.625000009         0.899999965
     0.333332976         0.749999982         0.199999997
     0.500000000         0.125000000         0.899999965
     0.500000000         0.875000027         0.300000018
     0.666666975         0.250000000         0.399999994
     0.666666975         0.500000000         0.600000035
     0.833332976         0.125000000         0.899999965
     0.000000000         0.250000000         0.199999997
     0.000000000         0.250000000         0.799999988
     0.000000000         0.000000000         0.399999994
     0.166666999         0.125000000         0.700000012
     0.166666999         0.374999991         0.899999965
     0.166666999         0.875000027         0.500000000
     0.333332976         0.250000000         0.600000035
     0.500000000         0.374999991         0.099999999
     0.500000000         0.374999991         0.899999965
     0.666666975         0.250000000         0.799999988
     0.666666975         0.500000000         0.199999997
     0.833332976         0.374999991         0.500000000
     0.833332976         0.625000009         0.300000018
     0.000000000         0.749999982         0.799999988
     0.000000000         0.000000000         0.199999997
     0.166666999         0.374999991         0.700000012
     0.166666999         0.625000009         0.099999999
     0.166666999         0.625000009         0.300000018
     0.333332976         0.500000000         0.199999997
     0.333332976         0.500000000         0.399999994
     0.333332976         0.000000000         0.199999997
     0.333332976         0.000000000         0.000000000
     0.500000000         0.875000027         0.099999999
     0.500000000         0.875000027         0.700000012
     0.666666975         0.500000000         0.799999988
     0.666666975         0.500000000         0.000000000
     0.000000000         0.749999982         0.399999994
     0.166666999         0.374999991         0.099999999
     0.333332976         0.749999982         0.799999988
     0.500000000         0.374999991         0.300000018
     0.666666975         0.250000000         0.600000035
     0.666666975         0.000000000         0.799999988
     0.833332976         0.374999991         0.099999999
     0.833332976         0.625000009         0.099999999
     0.833332976         0.625000009         0.899999965
     0.833332976         0.875000027         0.099999999
     0.000000000         0.500000000         0.399999994
     0.000000000         0.749999982         0.199999997
     0.000000000         0.000000000         0.000000000
     0.166666999         0.125000000         0.500000000
     0.166666999         0.875000027         0.099999999
     0.166666999         0.875000027         0.300000018
     0.500000000         0.125000000         0.099999999
     0.500000000         0.125000000         0.500000000
     0.666666975         0.250000000         0.199999997
     0.666666975         0.500000000         0.399999994
     0.666666975         0.000000000         0.199999997
     0.666666975        -0.000000000         0.600000035
     0.833332976         0.125000000         0.300000018
     0.833332976         0.625000009         0.500000000
    -0.000000000         0.749999982         0.600000035
     0.166666999         0.125000000         0.300000018
     0.166666999         0.374999991         0.300000018
     0.166666999         0.374999991         0.500000000
     0.166666999         0.625000009         0.500000000
     0.166666999         0.625000009         0.700000012
     0.166666999         0.875000027         0.700000012
     0.166666999         0.875000027         0.899999965
     0.333332976         0.250000000         0.199999997
     0.333332976         0.250000000         0.399999994
     0.333332976         0.250000000         0.799999988
     0.333332976         0.250000000         0.000000000
     0.333332976         0.500000000         0.600000035
     0.333332976         0.500000000         0.799999988
     0.333332976         0.500000000         0.000000000
     0.333332976         0.749999982         0.399999994
     0.333332976         0.749999982         0.600000035
     0.333332976         0.749999982         0.000000000
     0.333332976         0.000000000         0.399999994
     0.333332976        -0.000000000         0.600000035
     0.333332976         0.000000000         0.799999988
     0.500000000         0.125000000         0.300000018
     0.500000000         0.125000000         0.700000012
     0.500000000         0.374999991         0.500000000
     0.500000000         0.374999991         0.700000012
     0.500000000         0.625000009         0.099999999
     0.500000000         0.625000009         0.300000018
     0.500000000         0.625000009         0.500000000
     0.500000000         0.625000009         0.700000012
     0.500000000         0.625000009         0.899999965
     0.500000000         0.875000027         0.500000000
     0.500000000         0.875000027         0.899999965
     0.666666975         0.250000000         0.000000000
     0.666666975         0.749999982         0.199999997
     0.666666975         0.749999982         0.399999994
     0.666666975         0.749999982         0.600000035
     0.666666975         0.749999982         0.799999988
     0.666666975         0.749999982         0.000000000
     0.666666975         0.000000000         0.399999994
     0.666666975         0.000000000         0.000000000
     0.833332976         0.125000000         0.099999999
     0.833332976         0.125000000         0.500000000
     0.833332976         0.125000000         0.700000012
     0.833332976         0.374999991         0.300000018
     0.833332976         0.374999991         0.700000012
     0.833332976         0.374999991         0.899999965
     0.833332976         0.625000009         0.700000012
     0.833332976         0.875000027         0.300000018
     0.833332976         0.875000027         0.500000000
     0.833332976         0.875000027         0.700000012
     0.833332976         0.875000027         0.899999965
     0.000000000         0.250000000         0.399999994
    -0.000000000         0.250000000         0.600000035
     0.000000000         0.250000000         0.000000000
     0.000000000         0.500000000         0.199999997
    -0.000000000         0.500000000         0.600000035
     0.000000000         0.500000000         0.799999988
     0.000000000         0.500000000         0.000000000
     0.000000000         0.749999982         0.000000000
    -0.000000000        -0.000000000         0.600000035
     0.000000000         0.000000000         0.799999988
